[ma. 03. april 15:07:59 +0200 2023]  ./input/alternate_g_np/50-5-2.gcc
Set parameter Username
Academic license - for non-commercial use only - expires 2024-03-28
Set parameter TimeLimit to value 1800
Set parameter PreCrush to value 1
Set parameter LazyConstraints to value 1
Gurobi Optimizer version 10.0.1 build v10.0.1rc0 (linux64)

CPU model: AMD Ryzen 9 5950X 16-Core Processor, instruction set [SSE2|AVX|AVX2]
Thread count: 16 physical cores, 32 logical processors, using up to 32 threads

Optimize a model with 56 rows, 350 columns and 950 nonzeros
Model fingerprint: 0xb2b0b837
Variable types: 0 continuous, 350 integer (350 binary)
Coefficient statistics:
  Matrix range     [1e+00, 1e+00]
  Objective range  [4e+00, 1e+02]
  Bounds range     [1e+00, 1e+00]
  RHS range        [1e+00, 1e+00]
Presolve time: 0.00s
Presolved: 56 rows, 350 columns, 950 nonzeros
Variable types: 0 continuous, 350 integer (350 binary)

Root relaxation: objective 2.856000e+03, 6 iterations, 0.00 seconds (0.00 work units)

    Nodes    |    Current Node    |     Objective Bounds      |     Work
 Expl Unexpl |  Obj  Depth IntInf | Incumbent    BestBd   Gap | It/Node Time

     0     0 2856.00000    0    8          - 2856.00000      -     -    0s
     0     0 2856.00000    0    9          - 2856.00000      -     -    0s
     0     0 2856.00000    0    -          - 2856.00000      -     -    0s
     0     0 2856.00000    0    6          - 2856.00000      -     -    0s
     0     0 2856.00000    0    -          - 2856.00000      -     -    0s
     0     0 2856.00000    0    -          - 2856.00000      -     -    0s
     0     0 2856.00000    0   17          - 2856.00000      -     -    0s
     0     2 2856.00000    0    8          - 2856.00000      -     -    0s
 17058  9467 2726.93750   59   14          - 2856.00000      -  16.6    5s
*25085 13746              38    2613.0000000 2856.00000  9.30%  19.7    7s
H26486 14439                    2621.0000000 2856.00000  8.97%  20.6    8s
H28071  2415                    2856.0000000 2856.00000  0.00%  21.3    8s

Cutting planes:
  User: 81
  Lazy constraints: 2239

Explored 28967 nodes (627935 simplex iterations) in 9.04 seconds (2.28 work units)
Thread count was 32 (of 32 available processors)

Solution count 3: 2856 2621 2613 

Optimal solution found (tolerance 1.00e-04)
Best objective 2.856000000000e+03, best bound 2.856000000000e+03, gap 0.0000%

User-callback calls 58801, time in user-callback 4.65 sec
Minimal separator inequalities added: 184875
Indegree inequalities added: 183193
Passed solution check
[ma. 03. april 15:08:08 +0200 2023]  done

